GeneratedTests/Random_11/Random_11_4.tsp
NAME: Random_11_4
TYPE: TSP
DIMENSION: 11
EDGE_WEIGHT_TYPE: EUC_2D
NODE_COORD_SECTION
1 20.625309 27.46605
2 21.992615 0.005269468
3 25.340303 29.44734
4 0.9350817 8.070216
5 20.682865 7.0045214
6 2.7323499 14.223299
7 29.337067 10.402223
8 29.203848 9.311879
9 28.227882 4.031151
10 3.3233957 18.581688
11 6.0288515 8.004798
EOF
