GeneratedTests/Random_11/Random_11_4.txt
NAME: Random_11_4
TYPE: TSP
DIMENSION: 11
EDGE_WEIGHT_TYPE: EUC_2D
NODE_COORD_SECTION
1 17.97047 30.334408
2 17.647198 29.426405
3 12.837167 17.525253
4 26.978148 23.402891
5 28.869202 23.4921
6 29.365896 13.312605
7 32.51047 22.49985
8 26.383877 19.006344
9 11.36657 21.815912
10 8.489887 18.074305
11 23.384066 28.141987
EOF
